unknown
(:reason-unknown "(incomplete quantifiers)")
(((ControlFlow 0 0) 974831))
(((ControlFlow 0 974831) 765855))
(((ControlFlow 0 765855) 765845))
(((ControlFlow 0 765845) 766129))
(((ControlFlow 0 766129) 766299))
(((ControlFlow 0 766299) 766321))
(((ControlFlow 0 766321) 766393))
(((ControlFlow 0 766393) 766387))
(((ControlFlow 0 766387) 766607))
(((ControlFlow 0 766607) 766601))
(((ControlFlow 0 766601) 766611))
(((ControlFlow 0 766611) 766928))
(((ControlFlow 0 766928) 766870))
(((ControlFlow 0 766870) 767051))
(((ControlFlow 0 767051) 767045))
(((ControlFlow 0 767045) 767065))
(((ControlFlow 0 767065) 767496))
(((ControlFlow 0 767496) 767412))
(((ControlFlow 0 767412) 767436))
(((ControlFlow 0 767436) 768094))
(((ControlFlow 0 768094) (- 976540)))
unsat
